language Essence 1.3

letting length be 4

$ vincular mix param file
$ mesh_avoidance = permutation + mesh pieces + vincular indeces
$letting mesh_avoidance be { (sequence(1,3,2), relation( (1, 0), (1, 1), (1, 2), (1, 3), (2,1) ) }

letting mixed_avoidance be { ( sequence(1,3,2), relation( (2, 1) ), {1} ) } 
